CMPL model generation - running

CMPL version: 1.11.0
Authors: Thomas Schleiff, Mike Steglich
Distributed under the GPLv3 

create model instance ...
write model instance ...
CMPL model generation - finished

Solver - running


Welcome to IBM(R) ILOG(R) CPLEX(R) Interactive Optimizer 12.7.1.0
  with Simplex, Mixed Integer & Barrier Optimizers
5725-A06 5725-A29 5724-Y48 5724-Y49 5724-Y54 5724-Y55 5655-Y21
Copyright IBM Corp. 1988, 2017.  All Rights Reserved.

Type 'help' for a list of available commands.
Type 'help' followed by a command name for more
information on commands.

CPLEX> Specified objective sense: MINIMIZE
Selected objective  name:  line[1]
Selected RHS        name:  RHS
Selected bound      name:  BOUND
Problem '/tmp/cmpl.T24187.mps' read.
Read time = 0.08 sec. (8.17 ticks)
CPLEX> CPXPARAM_Read_APIEncoding                        "UTF-8"
Tried aggregator 3 times.
MIP Presolve eliminated 19209 rows and 30644 columns.
MIP Presolve modified 340 coefficients.
Aggregator did 638 substitutions.
Reduced MIP has 2508 rows, 3311 columns, and 9651 nonzeros.
Reduced MIP has 3143 binaries, 0 generals, 0 SOSs, and 0 indicators.
Presolve time = 0.09 sec. (40.48 ticks)
Found incumbent of value 802.213483 after 0.14 sec. (62.63 ticks)
Probing fixed 12 vars, tightened 0 bounds.
Probing time = 0.01 sec. (4.31 ticks)
Tried aggregator 1 time.
MIP Presolve eliminated 0 rows and 12 columns.
MIP Presolve modified 52 coefficients.
Reduced MIP has 2508 rows, 3299 columns, and 9627 nonzeros.
Reduced MIP has 3299 binaries, 0 generals, 0 SOSs, and 0 indicators.
Presolve time = 0.01 sec. (8.22 ticks)
Probing time = 0.01 sec. (2.69 ticks)
Clique table members: 5989.
MIP emphasis: balance optimality and feasibility.
MIP search method: dynamic search.
Parallel mode: none, using 1 thread.
Root relaxation solution time = 0.01 sec. (4.87 ticks)

        Nodes                                         Cuts/
   Node  Left     Objective  IInf  Best Integer    Best Bound    ItCnt     Gap

*     0+    0                          802.2135      -36.1476           104.51%
      0     0      197.9355    11      802.2135      197.9355      155   75.33%
*     0+    0                          211.9225      197.9355             6.60%
*     0+    0                          198.2498      197.9355             0.16%
*     0     0      integral     0      198.1993      Cuts: 15      160    0.00%
      0     0        cutoff            198.1993      198.1993      160    0.00%
Elapsed time = 0.22 sec. (102.46 ticks, tree = 0.01 MB, solutions = 4)

GUB cover cuts applied:  1
Clique cuts applied:  3
Cover cuts applied:  7
Gomory fractional cuts applied:  4

Root node processing (before b&c):
  Real time             =    0.22 sec. (104.18 ticks)
Sequential b&c:
  Real time             =    0.00 sec. (0.00 ticks)
                          ------------
Total (root+branch&cut) =    0.22 sec. (104.18 ticks)

Solution pool: 4 solutions saved.

MIP - Integer optimal solution:  Objective =  1.9819932000e+02
Solution time =    0.22 sec.  Iterations = 160  Nodes = 0
Deterministic time = 104.28 ticks  (475.43 ticks/sec)

CPLEX> Incumbent solution written to file '/tmp/cmpl.T24187.gsol'.
CPLEX> 
CMPL: Time used for model generation: 1 seconds
CMPL: Time used for solving the model: 0 seconds


Solution written to ASCII file: results/output_generated_conf_0.5/2017-09-04-4/fair-nonlinear.sol

Solver - finished
